31
9 35
60 67
77 33
92 38
16 55
7 87
2 81
4 60
34 68
76 70
88 35
41 44
41 8
67 56
6 15
14 96
8 13
76 62
76 48
32 28
26 71
81 63
54 74
32 100
97 12
73 30
39 53
6 40
22 70
2 30
57 66
